100
128
1
7
58
23
36
20
30
11
36
45
61
57
57
13
14
52
25
12
36
57
53
14
64
59
19
14
18
23
3
12
30
2
44
2
23
50
17
23
19
25
41
24
30
25
14
16
10
48
47
42
11
50
28
11
27
43
34
2
6
38
2
21
21
39
34
38
52
34
14
42
20
57
19
17
7
59
63
1
50
30
47
37
35
28
1
18
49
6
2
36
41
51
3
50
18
22
35
20
29
64